#This script minimises the given structure and calculates the average potential energy per element

log			log.minim_bulk
units			metal
atom_style		atomic
boundary		p p p
read_data		./lmp.bulk
pair_style		meam
pair_coeff		* * /home/vs62ceze/static/CoNiCrFeMn_library.meam Co Ni Cr Fe Mn &        
			/home/vs62ceze/static/CoNiCrFeMn.meam Ni Fe Co Cr Mn

variable		el1 atom type==1
variable		el2 atom type==2
variable		el3 atom type==3
variable		el4 atom type==4
variable		el5 atom type==5

group			gNi variable el1
group			gFe variable el2
group			gCo variable el3
group			gCr variable el4
group			gMn variable el5

compute			epa all pe/atom
compute			Ni gNi reduce ave c_epa
compute			Fe gFe reduce ave c_epa
compute			Co gCo reduce ave c_epa
compute			Cr gCr reduce ave c_epa
compute			Mn gMn reduce ave c_epa

thermo			100
thermo_style		custom step temp press pxx pyy pzz pxy pxz pyz vol etotal lx ly lz fmax c_Ni c_Fe c_Co c_Cr c_Mn        
thermo_modify		flush yes 

dump			1 all custom 100 lammpstrj.minim_bulk id type x y z

fix			1 all box/relax iso 0.0
minimize		0.0 1.0e-6 1000 10000
unfix			1
minimize		0.0 1.0e-6 1000 10000

fix			1 all box/relax iso 0.0
minimize		0.0 1.0e-6 1000 10000
unfix			1
minimize		0.0 1.0e-6 1000 10000

write_data		data.minim_bulk
undump			1
